Maximize
obj: x05 + x16 + x24 + x36 + x41 + x50 + x65 + x77 + x85 + x92 + x106 + x07 + x15 + x20 + x35 + x46 + x57 + x67 + x70 + x87 + x96 + x104 + x06 + x10 + x27 + x37 + x47 + x54 + x66 + x74 + x86 + x95 + x100
Subject To
c1: x05 + x07 + x06 <= 1
c2: x16 + x15 + x10 <= 1
c3: x24 + x20 + x27 <= 1
c4: x36 + x35 + x37 <= 1
c5: x41 + x46 + x47 <= 1
c6: x50 + x57 + x54 <= 1
c7: x65 + x67 + x66 <= 1
c8: x77 + x70 + x74 <= 1
c9: x85 + x87 + x86 <= 1
c10: x92 + x96 + x95 <= 1
c11: x106 + x104 + x100 <= 1
c12: x50 + x20 + x70 + x10 + x100 <= 2
c13: x41 <= 1
c14: x92 <= 1
c15: x24 + x104 + x54 + x74 <= 1
c16: x05 + x65 + x85 + x15 + x35 + x95 <= 1
c17: x16 + x36 + x106 + x46 + x96 + x06 + x66 + x86 <= 1
c18: x77 + x07 + x57 + x67 + x87 + x27 + x37 + x47 <= 1
Binary 
x05 x16 x24 x36 x41 x50 x65 x77 x85 x92 x106 x07 x15 x20 x35 x46 x57 x67 x70 x87 x96 x104 x06 x10 x27 x37 x47 x54 x66 x74 x86 x95 x100 
End